c t mc
c file mc2022_track1_038.cnf
p cnf 94 496
17 15 54 66 86 0
63 83 -2 -18 48 0
-39 -74 -29 -16 57 0
-42 3 -4 -82 -51 0
-82 -51 -22 81 46 0
-60 13 -61 68 79 0
-33 -26 -90 -7 28 0
-72 20 -47 39 74 0
73 52 -19 80 -24 0
-80 -24 -70 40 6 0
62 -38 -77 -12 65 0
-41 -34 -58 -64 92 0
-27 -87 88 -85 14 0
-64 -92 -5 -62 -38 0
69 76 -55 33 -26 0
69 -76 55 -33 26 0
-81 46 9 -36 -30 0
80 24 70 40 -6 0
16 57 -1 41 34 0
-27 -87 -88 -85 -14 0
-81 46 -9 -36 30 0
-40 6 32 -17 15 0
31 67 -78 -72 -20 0
40 6 -32 -17 15 0
93 -56 25 42 -3 0
-8 -59 -91 89 -94 0
84 37 -23 -27 -87 0
-12 -65 10 -45 60 0
7 -28 71 -73 52 0
68 -79 -11 63 -83 0
-73 -52 -19 -80 24 0
80 -24 -70 40 -6 0
-81 -46 -9 36 30 0
-53 49 -35 -93 -56 0
-12 -65 -10 -45 -60 0
81 -46 9 36 30 0
-85 -14 -44 31 67 0
-68 79 -11 63 -83 0
-18 48 -75 -69 -76 0
33 -26 -90 -7 -28 0
-63 83 2 -18 48 0
7 28 71 -73 -52 0
93 -56 -25 42 3 0
-12 65 10 45 60 0
-85 -14 -44 -31 -67 0
-17 -15 -54 66 -86 0
8 -59 -91 89 94 0
16 57 -1 -41 -34 0
-68 -79 11 63 -83 0
-31 -67 -78 72 20 0
64 92 5 -62 38 0
42 3 -4 -82 51 0
17 -15 -54 66 86 0
16 -57 -1 41 -34 0
-66 86 50 53 -49 0
72 20 -47 39 -74 0
39 74 29 -16 -57 0
8 59 91 -89 -94 0
31 67 78 -72 20 0
-39 74 29 16 -57 0
63 -83 2 18 -48 0
-66 86 -50 53 49 0
-36 -30 43 8 -59 0
-7 28 71 -73 52 0
7 28 -71 73 -52 0
-33 -26 90 -7 -28 0
-63 83 -2 -18 -48 0
41 34 -58 64 -92 0
-72 20 -47 -39 -74 0
17 15 -54 66 -86 0
-27 87 -88 85 -14 0
89 -94 -21 84 -37 0
-81 -46 9 36 -30 0
53 -49 -35 -93 -56 0
41 34 58 -64 -92 0
-72 -20 -47 39 -74 0
42 -3 4 -82 51 0
-42 3 -4 82 51 0
-41 -34 58 64 92 0
81 46 -9 36 30 0
80 24 -70 40 6 0
64 -92 5 -62 -38 0
64 -92 -5 62 -38 0
-84 -37 -23 -27 -87 0
72 20 47 -39 -74 0
31 -67 -78 -72 20 0
-7 -28 71 -73 -52 0
8 -59 91 89 -94 0
81 46 9 -36 30 0
-89 -94 -21 84 37 0
68 -79 11 63 83 0
60 13 61 68 79 0
40 6 -32 17 -15 0
-17 15 -54 -66 -86 0
53 49 35 93 56 0
-60 -13 -61 -68 79 0
72 20 -47 -39 74 0
-33 26 -90 -7 -28 0
-16 57 1 -41 -34 0
-42 -3 -4 82 -51 0
-53 -49 35 93 56 0
-69 76 55 33 -26 0
-41 34 -58 -64 -92 0
60 -13 -61 -68 -79 0
84 -37 -23 27 -87 0
-84 37 -23 27 -87 0
63 83 2 -18 -48 0
-36 30 43 8 59 0
-73 52 -19 80 24 0
-17 -15 -54 -66 86 0
64 92 5 62 -38 0
-63 -83 -2 18 -48 0
-80 24 -70 -40 6 0
-31 67 78 72 20 0
-72 -20 -47 -39 74 0
31 67 -78 72 20 0
18 -48 -75 -69 -76 0
82 -51 -22 81 -46 0
-81 46 9 36 30 0
-81 -46 9 -36 30 0
40 -6 -32 -17 -15 0
-7 28 -71 -73 -52 0
60 -13 61 -68 79 0
-89 -94 21 84 -37 0
12 65 -10 45 60 0
42 -3 -4 82 51 0
42 -3 -4 -82 -51 0
66 86 -50 53 -49 0
-93 56 -25 -42 -3 0
-82 51 -22 81 -46 0
-64 92 5 -62 -38 0
-68 79 -11 -63 83 0
-27 -87 -88 85 14 0
-36 -30 -43 -8 -59 0
-16 57 1 41 34 0
93 56 25 42 3 0
27 87 -88 85 14 0
-80 24 70 -40 -6 0
-16 -57 1 41 -34 0
-53 49 35 93 -56 0
-64 92 -5 62 -38 0
-80 24 70 40 6 0
-89 94 21 84 37 0
-41 34 -58 64 92 0
-16 -57 -1 -41 -34 0
-64 92 5 62 38 0
-84 37 -23 -27 87 0
-85 14 44 -31 -67 0
-63 83 -2 18 48 0
-72 -20 47 -39 -74 0
42 -3 4 82 -51 0
63 83 -2 18 -48 0
41 -34 -58 64 92 0
-72 -20 47 39 74 0
-89 94 -21 84 -37 0
33 26 -90 -7 28 0
-33 26 90 7 -28 0
60 13 61 -68 -79 0
31 67 78 72 -20 0
12 -65 10 -45 -60 0
-60 -13 61 -68 -79 0
36 -30 43 8 59 0
-18 48 75 -69 76 0
-40 6 -32 -17 -15 0
64 92 -5 -62 -38 0
68 79 -11 63 83 0
31 -67 78 -72 -20 0
82 -51 -22 -81 46 0
41 34 -58 -64 92 0
36 30 -43 8 59 0
66 -86 50 53 -49 0
8 59 -91 89 -94 0
-82 51 22 81 46 0
82 51 22 81 -46 0
62 38 -77 -12 -65 0
40 -6 -32 17 15 0
84 37 23 27 -87 0
72 -20 47 -39 74 0
85 14 44 -31 67 0
-31 67 -78 -72 20 0
-63 -83 2 -18 -48 0
-53 49 35 -93 56 0
-33 26 -90 7 28 0
36 30 43 -8 59 0
-64 -92 5 62 -38 0
89 94 21 84 -37 0
-80 -24 70 40 -6 0
81 -46 -9 -36 30 0
39 74 29 16 57 0
-7 -28 -71 -73 52 0
-89 94 -21 -84 37 0
12 65 -10 -45 -60 0
89 -94 -21 -84 37 0
-82 -51 22 81 -46 0
68 -79 11 -63 -83 0
7 -28 71 73 -52 0
84 -37 23 27 87 0
-85 14 -44 -31 67 0
64 -92 5 62 38 0
33 -26 90 -7 28 0
-93 56 -25 42 3 0
-8 59 91 -89 94 0
8 59 -91 -89 94 0
-18 -48 75 69 76 0
53 49 -35 93 -56 0
-63 -83 -2 -18 48 0
-68 -79 11 -63 83 0
40 -6 32 17 -15 0
7 -28 -71 -73 -52 0
-82 51 22 -81 -46 0
41 -34 58 -64 92 0
-66 86 50 -53 49 0
18 -48 75 -69 76 0
39 -74 29 16 -57 0
-72 20 47 -39 74 0
42 3 -4 82 -51 0
73 -52 19 80 -24 0
-39 -74 -29 16 -57 0
-62 38 -77 12 -65 0
53 49 35 -93 -56 0
-33 -26 -90 7 -28 0
68 -79 -11 -63 83 0
-18 -48 75 -69 -76 0
-62 -38 77 12 -65 0
-31 -67 78 72 -20 0
73 -52 19 -80 24 0
-82 -51 22 -81 46 0
-68 79 11 63 83 0
8 -59 -91 -89 -94 0
-39 74 29 -16 57 0
27 -87 88 85 14 0
80 24 70 -40 6 0
63 -83 -2 -18 -48 0
69 -76 -55 33 26 0
39 74 -29 -16 57 0
-40 -6 -32 -17 15 0
-84 -37 23 27 -87 0
80 24 -70 -40 -6 0
-63 -83 2 18 48 0
-89 94 21 -84 -37 0
-64 -92 5 -62 38 0
-17 15 54 66 -86 0
68 79 -11 -63 -83 0
63 83 2 18 48 0
36 30 43 8 -59 0
-39 -74 29 16 57 0
17 -15 54 66 -86 0
66 -86 -50 53 49 0
73 52 19 -80 -24 0
-85 -14 44 -31 67 0
-41 -34 58 -64 -92 0
27 87 88 -85 14 0
53 -49 -35 93 56 0
81 46 -9 -36 -30 0
-93 56 25 42 -3 0
40 6 32 17 15 0
-12 -65 10 45 -60 0
82 -51 22 -81 -46 0
84 37 23 -27 87 0
-73 -52 -19 80 -24 0
-84 -37 23 -27 87 0
82 51 22 -81 46 0
-8 59 91 89 -94 0
85 14 -44 31 67 0
-93 -56 25 42 3 0
-69 76 55 -33 26 0
39 -74 -29 -16 -57 0
-42 3 4 82 -51 0
-39 74 -29 16 57 0
-53 49 -35 93 56 0
-8 59 -91 89 94 0
60 -13 -61 68 79 0
-40 6 -32 17 15 0
42 3 4 -82 -51 0
16 57 1 -41 34 0
-16 57 -1 41 -34 0
53 -49 35 93 -56 0
-69 -76 -55 -33 26 0
31 -67 78 72 20 0
-89 -94 21 -84 37 0
41 34 58 64 92 0
64 92 -5 62 38 0
-84 -37 -23 27 87 0
60 13 -61 -68 79 0
-68 -79 -11 -63 -83 0
-84 37 23 27 87 0
66 86 50 -53 -49 0
-12 65 10 -45 -60 0
72 -20 47 39 -74 0
-36 30 -43 -8 59 0
-69 76 -55 33 26 0
-40 -6 -32 17 -15 0
-82 51 -22 -81 46 0
27 -87 88 -85 -14 0
73 52 19 80 24 0
-53 -49 -35 -93 56 0
62 38 77 -12 65 0
-81 46 -9 36 -30 0
17 -15 54 -66 86 0
-18 48 75 69 -76 0
-7 28 -71 73 52 0
-39 -74 29 -16 -57 0
-27 87 88 85 14 0
-27 87 88 -85 -14 0
27 -87 -88 85 -14 0
72 -20 -47 39 74 0
-31 67 -78 72 -20 0
-7 -28 71 73 52 0
62 -38 77 -12 -65 0
66 -86 50 -53 49 0
-41 34 58 64 -92 0
-85 -14 44 31 -67 0
-17 -15 54 66 86 0
85 14 -44 -31 -67 0
-82 -51 -22 -81 -46 0
73 -52 -19 -80 -24 0
-53 -49 -35 93 -56 0
33 26 90 7 28 0
84 -37 23 -27 -87 0
-18 -48 -75 -69 76 0
-62 38 77 12 65 0
39 -74 29 -16 57 0
-73 -52 19 80 24 0
-85 14 -44 31 -67 0
-62 -38 -77 12 65 0
8 -59 91 -89 94 0
-16 -57 -1 41 34 0
27 -87 -88 -85 14 0
-85 14 44 31 67 0
-39 74 -29 -16 -57 0
72 -20 -47 -39 -74 0
7 28 71 73 52 0
40 -6 32 -17 15 0
62 -38 77 12 65 0
69 -76 -55 -33 -26 0
-8 -59 91 -89 -94 0
-16 57 -1 -41 34 0
82 51 -22 -81 -46 0
62 38 -77 12 65 0
39 -74 -29 16 57 0
84 37 -23 27 87 0
-17 15 54 -66 86 0
69 -76 55 33 -26 0
85 14 44 31 -67 0
-62 38 77 -12 -65 0
41 -34 -58 -64 -92 0
-81 -46 -9 -36 -30 0
36 -30 -43 -8 59 0
17 -15 -54 -66 -86 0
85 -14 44 -31 -67 0
36 30 -43 -8 -59 0
-40 -6 32 -17 -15 0
12 -65 10 45 60 0
93 56 25 -42 -3 0
-62 -38 77 -12 65 0
31 -67 -78 72 -20 0
18 48 75 69 76 0
-8 -59 -91 -89 94 0
33 26 90 -7 -28 0
89 -94 21 84 37 0
-27 87 -88 -85 14 0
27 87 88 85 -14 0
89 94 21 -84 37 0
-31 67 78 -72 -20 0
85 -14 44 31 67 0
17 15 54 -66 -86 0
-66 86 -50 -53 -49 0
66 86 50 53 49 0
64 -92 -5 -62 38 0
-64 92 -5 -62 38 0
81 -46 -9 36 -30 0
-62 -38 -77 -12 -65 0
16 57 1 41 -34 0
85 -14 -44 31 -67 0
33 26 -90 7 -28 0
-18 -48 -75 69 -76 0
63 -83 -2 18 48 0
12 -65 -10 45 -60 0
53 -49 35 -93 56 0
73 -52 -19 80 24 0
36 -30 -43 8 -59 0
-73 52 19 80 -24 0
66 -86 -50 -53 -49 0
39 74 -29 16 -57 0
-36 -30 -43 8 59 0
69 76 55 -33 -26 0
80 -24 70 -40 -6 0
-41 34 58 -64 92 0
18 48 -75 -69 76 0
-18 48 -75 69 76 0
-36 30 -43 8 -59 0
89 94 -21 84 37 0
80 -24 -70 -40 6 0
33 -26 90 7 -28 0
63 -83 2 -18 48 0
93 56 -25 -42 3 0
18 -48 75 69 -76 0
36 -30 43 -8 -59 0
-31 -67 -78 -72 -20 0
-62 38 -77 -12 65 0
-66 -86 -50 53 -49 0
-8 59 -91 -89 -94 0
-31 -67 78 -72 20 0
18 -48 -75 69 76 0
7 28 -71 -73 52 0
68 79 11 -63 83 0
-72 20 47 39 -74 0
-7 28 71 73 -52 0
-8 -59 91 89 94 0
-69 -76 -55 33 -26 0
-60 13 61 68 -79 0
-40 -6 32 17 15 0
60 -13 61 68 -79 0
93 -56 25 -42 3 0
12 65 10 45 -60 0
-93 -56 25 -42 -3 0
33 -26 -90 7 28 0
-33 -26 90 7 28 0
-60 -13 -61 68 -79 0
80 -24 70 40 6 0
-73 52 -19 -80 -24 0
-69 76 -55 -33 -26 0
-7 -28 -71 73 -52 0
85 -14 -44 -31 67 0
-69 -76 55 33 26 0
-69 -76 55 -33 -26 0
-42 3 4 -82 51 0
72 20 47 39 74 0
81 46 9 36 -30 0
-42 -3 4 82 51 0
40 6 32 -17 -15 0
8 59 91 89 94 0
-27 -87 88 85 -14 0
62 -38 -77 12 -65 0
53 49 -35 -93 56 0
-73 -52 19 -80 -24 0
-64 -92 -5 62 38 0
69 76 -55 -33 26 0
89 94 -21 -84 -37 0
-60 13 61 -68 79 0
-60 -13 61 68 79 0
42 3 4 82 51 0
-17 -15 54 -66 -86 0
-80 24 -70 40 -6 0
7 -28 -71 73 52 0
-89 -94 -21 -84 -37 0
73 52 -19 -80 24 0
27 87 -88 -85 -14 0
-60 13 -61 -68 -79 0
82 51 -22 81 46 0
81 -46 9 -36 -30 0
-12 -65 -10 45 60 0
-68 79 11 -63 -83 0
-36 -30 43 -8 59 0
12 -65 -10 -45 60 0
-63 83 2 18 -48 0
89 -94 21 -84 -37 0
66 86 -50 -53 49 0
68 79 11 63 -83 0
41 -34 58 64 -92 0
12 65 10 -45 60 0
16 -57 1 41 34 0
18 48 75 -69 -76 0
18 48 -75 69 -76 0
93 56 -25 42 -3 0
-66 -86 50 -53 -49 0
-53 -49 35 -93 -56 0
-17 15 -54 66 86 0
-36 30 43 -8 -59 0
16 -57 -1 -41 34 0
69 76 55 33 26 0
-93 56 25 -42 3 0
93 -56 -25 -42 -3 0
-12 65 -10 45 -60 0
-84 37 23 -27 -87 0
-40 6 32 17 -15 0
-80 -24 -70 -40 -6 0
-12 65 -10 -45 60 0
-73 52 19 -80 24 0
82 -51 22 81 46 0
62 38 77 12 -65 0
84 -37 -23 -27 87 0
-42 -3 4 -82 -51 0
-33 26 90 -7 28 0
17 15 -54 -66 86 0
60 13 -61 68 -79 0
-66 -86 -50 -53 49 0
16 -57 1 -41 -34 0
-93 -56 -25 -42 3 0
-93 -56 -25 42 -3 0
-42 -3 -4 -82 51 0
-41 -34 -58 64 -92 0
-66 -86 50 53 49 0
-16 -57 1 -41 34 0
-68 -79 -11 63 83 0
-80 -24 70 -40 6 0
